c Sudoku solution
p cnf 729 0
168 0
243 0
271 0
284 0
298 0
324 0
386 0
392 0
437 0
451 0
495 0
535 0
556 0
567 0
594 0
628 0
665 0
716 0
731 0
782 0
832 0
913 0
934 0
818 0
338 0
373 0
946 0
266 0
239 0
979 0
981 0
997 0
793 0
885 0
896 0
874 0
778 0
958 0
962 0
925 0
175 0
677 0
476 0
572 0
636 0
126 0
133 0
521 0
519 0
423 0
653 0
583 0
488 0
548 0
222 0
152 0
144 0
111 0
464 0
412 0
614 0
449 0
642 0
863 0
841 0
361 0
359 0
754 0
769 0
745 0
857 0
727 0
829 0
347 0
255 0
217 0
315 0
689 0
691 0
187 0
199 0
